50 25
   1   -1   -1   -1   -1   -1   -1   -1   -1   -1   -1    2   -1   -1   -1   -1   14   -1   -1   10   -1   -1    1   -1   -1   -1   -1   -1    9   -1   -1    5   -1   -1   -1   -1   -1    2    0   -1   -1   22   -1   10   -1   -1   -1   -1    7   -1 
   0    1   16   -1   21   -1   14   -1   -1   -1   -1   -1   -1   -1   -1   -1   -1   -1   -1    4   -1   -1   13   12   -1   -1   21    2   -1   -1   -1   -1   -1   12   -1   23   -1   -1   -1   -1   24   -1   -1   -1   -1   -1   -1    7   -1   -1 
   0    0    1   -1   -1   -1   -1   13   -1   12   -1   -1   -1   -1   -1    2   -1   -1   16   -1   -1   -1   -1   -1   -1   -1   -1   20   -1   -1   -1   -1   -1   -1   -1   -1   -1   -1    4   -1   -1   -1   -1   -1   14   -1   -1   11   20   -1 
   0    0    0    1   -1   -1   -1   -1   -1   15   -1   -1   -1   -1   -1   -1   -1    3   -1   -1   -1   -1   23   -1   -1   -1   -1   14   -1   -1   -1   -1   13   -1   -1   -1   -1   -1   -1   -1   -1   -1   -1   -1   -1   11   -1   -1   -1   -1 
   0    0    0    0    1   -1   20   -1   -1   -1    4   -1   -1   -1   -1    7   -1   -1   -1   -1   -1   -1   -1   -1   18   -1   -1   -1    9   -1   -1   -1   14   -1   -1   -1   -1   -1   -1   -1   -1    8   -1   -1   -1   -1   -1   -1   -1   -1 
   0    0    0    0    0    1   16   -1   -1   24   -1   23   14   -1   -1   -1   -1   -1   -1   -1   -1   -1   20   -1   19   -1   -1   -1   21   19    9   13   -1   -1   -1   -1   -1   -1   -1   -1   -1   -1   -1   -1   -1   -1   -1   -1   10   -1 
   0    0    0    0    0    0    1   -1   -1   -1   19    4   -1   -1   -1   -1   -1   -1   17   -1   -1   -1   -1   -1   -1   -1   -1   -1   -1   -1   -1   -1    0   -1   -1   -1   -1   -1   -1   -1   -1    5   -1    3   21   -1   -1    7   -1   -1 
   0    0    0    0    0    0    0    1   -1   -1   -1   -1   -1    8   -1   -1   20   -1   -1   -1   -1   -1   -1    3   -1   -1   -1   -1   24   -1   -1   -1   -1   15   -1   -1   -1   -1   -1   -1   -1   -1   -1   -1   -1   -1   -1   -1    9   -1 
   0    0    0    0    0    0    0    0    1   -1    9   -1   -1   -1   -1   -1   -1   -1   -1   -1   -1   -1   -1   -1   -1   -1   -1   -1   -1   -1   -1   -1   -1   -1   -1   -1   -1   -1   11   -1   -1   -1   -1   -1   -1   -1   -1   -1   -1   -1 
   0    0    0    0    0    0    0    0    0    1   -1   -1   -1   20   -1   -1   -1   23   -1   -1   -1    8   -1   -1   -1   -1   -1   -1   -1   22   -1    2   21   -1   -1   -1   -1   -1   -1   15   -1   10   -1   -1   -1   12   11   -1   -1   -1 
   0    0    0    0    0    0    0    0    0    0    1   18   -1   -1   -1   -1   -1   -1   13   12   -1    6    5   14   -1   -1   -1   -1   -1   -1    3   -1   -1   -1    1   -1    0   -1   -1   -1   14   -1   -1   -1   14   -1   -1   -1    6   -1 
   0    0    0    0    0    0    0    0    0    0    0    1   -1   -1   -1   -1   -1   -1   -1   -1   -1   -1   -1   -1   -1   21   -1   -1   -1   -1   -1   -1   -1   -1    9   -1   -1   -1   -1   -1   -1   -1   -1   -1   -1   -1   11   -1   -1   12 
   0    0    0    0    0    0    0    0    0    0    0    0    1   -1   23   -1   -1   -1   -1   -1   10   -1   -1   -1   -1   -1   -1   -1   -1   -1   -1    9   -1   -1   -1   -1   -1   -1   -1   -1   -1   -1   -1   -1   13   -1   -1   -1   -1    8 
   0    0    0    0    0    0    0    0    0    0    0    0    0    1   -1   -1    6   -1   -1   -1   23   -1   -1   -1   -1    7   -1   -1    1   -1   -1   -1   -1    5   -1   -1   21    1   -1    0   -1   -1    2   -1   -1   12   -1   -1   -1   -1 
   0    0    0    0    0    0    0    0    0    0    0    0    0    0    1   17   -1   -1   -1   23   -1   17   -1   -1   -1    3   -1   -1   -1   -1   -1   -1    3   -1   13   -1   -1   -1   -1    9   -1   -1   -1   -1   16   -1    8   -1   16   -1 
   0    0    0    0    0    0    0    0    0    0    0    0    0    0    0    1   -1   -1   -1    6   -1   -1   -1   -1   -1   -1   -1   -1   22   -1   -1   -1   13   -1    4    0   -1   -1   -1   13   -1   -1   -1   -1   -1    5    1   -1   -1   -1 
   0    0    0    0    0    0    0    0    0    0    0    0    0    0    0    0    1   -1   -1   -1   -1   -1    4   -1   -1   -1   -1   -1   -1   -1   -1   -1   -1   -1   16   -1   -1   -1   -1   -1    5   -1   -1   24   19   -1   -1   11   -1   -1 
   0    0    0    0    0    0    0    0    0    0    0    0    0    0    0    0    0    1   -1   -1   -1    4   -1   14   -1   -1   -1   -1   -1   -1   -1   -1   -1   -1   -1   -1   -1   -1    1   -1   22   18    5   -1    9   -1   -1   -1   -1    7 
   0    0    0    0    0    0    0    0    0    0    0    0    0    0    0    0    0    0    1   -1   -1   -1   -1   -1   -1   -1   -1   -1   -1   -1   -1    4   -1   -1   -1   24   17   -1   -1   -1   -1   -1   -1   -1   -1   -1   19   -1   -1   -1 
   0    0    0    0    0    0    0    0    0    0    0    0    0    0    0    0    0    0    0    1   -1   -1   -1   -1   16   -1   -1   -1   -1   -1   17   -1   -1   -1   -1   -1   -1   -1   -1   -1   -1   -1   -1   -1   18   -1   -1   -1   -1   -1 
   0    0    0    0    0    0    0    0    0    0    0    0    0    0    0    0    0    0    0    0    0   -1   12   -1   -1   -1   -1   21   -1   -1   15   -1   -1   -1   -1   -1   -1   -1   -1   -1   -1   -1   -1   -1   17   24   11   -1   -1   -1 
   0    0    0    0    0    0    0    0    0    0    0    0    0    0    0    0    0    0    0    0    0    0   -1   -1   -1   -1   -1   -1   -1    7   -1   -1   -1   -1   -1   -1   -1   -1   -1   -1   -1   -1   -1   -1   -1   -1   -1   -1   -1   -1 
   0    0    0    0    0    0    0    0    0    0    0    0    0    0    0    0    0    0    0    0    0    0    0   -1   -1   -1   -1   -1   -1   -1   -1   -1   13   -1   -1   -1   -1   -1   -1   -1   -1   -1   -1   -1    9   -1   -1   19   -1   -1 
   0    0    0    0    0    0    0    0    0    0    0    0    0    0    0    0    0    0    0    0    0    0    0    0   -1   -1   -1   -1   -1   -1   -1   -1   -1   -1    6   -1   -1   -1   -1   -1   -1   -1   -1   11   -1   17   -1   -1   -1   -1 
   0    0    0    0    0    0    0    0    0    0    0    0    0    0    0    0    0    0    0    0    0    0    0    0    0   -1   -1   -1   -1   -1   -1   -1   -1   -1   -1   -1   -1   -1   -1   -1    0   -1   -1   -1   -1   -1   -1   -1   -1   -1 
   0    0    0    0    0    0    0    0    0    0    0    0    0    0    0    0    0    0    0    0    0    0    0    0    0    0   -1   -1   -1   -1   -1    3   -1   -1   -1   -1   -1   10   -1   -1   -1   -1   -1   -1   -1   13   -1   -1   -1   -1 
   0    0    0    0    0    0    0    0    0    0    0    0    0    0    0    0    0    0    0    0    0    0    0    0    0    0    0   -1    4   -1   20   -1   -1   -1   -1   -1   20   -1   -1   -1   15   -1   -1   -1    8   -1   -1   -1   -1   -1 
   0    0    0    0    0    0    0    0    0    0    0    0    0    0    0    0    0    0    0    0    0    0    0    0    0    0    0    0   -1   -1   -1    1   -1   -1   -1   -1   -1   22   -1   -1   12   -1   -1   -1   -1   -1   -1   -1    1   -1 
   0    0    0    0    0    0    0    0    0    0    0    0    0    0    0    0    0    0    0    0    0    0    0    0    0    0    0    0    0   -1   -1   -1   -1   -1   -1    3   -1   -1   -1   -1   -1   -1   -1   -1   -1   -1   -1   -1   -1   -1 
   0    0    0    0    0    0    0    0    0    0    0    0    0    0    0    0    0    0    0    0    0    0    0    0    0    0    0    0    0    0   -1   -1   -1   -1   -1    3   -1   -1   -1   -1   -1   -1   -1   -1   -1   -1    5   -1   -1   22 
   0    0    0    0    0    0    0    0    0    0    0    0    0    0    0    0    0    0    0    0    0    0    0    0    0    0    0    0    0    0    0   23   -1   -1   -1    1   -1   -1   -1   23   -1   -1   -1   -1   -1   -1   -1   -1   -1   -1 
   0    0    0    0    0    0    0    0    0    0    0    0    0    0    0    0    0    0    0    0    0    0    0    0    0    0    0    0    0    0    0    0   -1   -1   -1   -1   -1   11   -1   -1   -1   -1   -1   -1   -1   -1   -1   -1   -1   -1 
   0    0    0    0    0    0    0    0    0    0    0    0    0    0    0    0    0    0    0    0    0    0    0    0    0    0    0    0    0    0    0    0    0   18   17    2   -1   -1   -1   -1   17   -1   -1   22   -1   24   -1   -1   11   -1 
   0    0    0    0    0    0    0    0    0    0    0    0    0    0    0    0    0    0    0    0    0    0    0    0    0    0    0    0    0    0    0    0    0    0   -1   -1   -1   -1   -1   -1   -1   -1   -1   -1   12   -1   -1   -1   -1   -1 
   0    0    0    0    0    0    0    0    0    0    0    0    0    0    0    0    0    0    0    0    0    0    0    0    0    0    0    0    0    0    0    0    0    0    0   -1   -1   -1   -1   -1   17   -1   -1   -1   -1   10   -1   -1   22   -1 
   0    0    0    0    0    0    0    0    0    0    0    0    0    0    0    0    0    0    0    0    0    0    0    0    0    0    0    0    0    0    0    0    0    0    0    0   -1   -1   -1   -1   -1    9   21   -1   20   11   -1   -1   21   -1 
   0    0    0    0    0    0    0    0    0    0    0    0    0    0    0    0    0    0    0    0    0    0    0    0    0    0    0    0    0    0    0    0    0    0    0    0    0   -1   -1   -1   11   24   -1   -1    6   -1   -1   -1   -1   -1 
   0    0    0    0    0    0    0    0    0    0    0    0    0    0    0    0    0    0    0    0    0    0    0    0    0    0    0    0    0    0    0    0    0    0    0    0    0    0   -1    3   -1   -1   -1   -1   -1   -1   -1   20   -1   -1 
   0    0    0    0    0    0    0    0    0    0    0    0    0    0    0    0    0    0    0    0    0    0    0    0    0    0    0    0    0    0    0    0    0    0    0    0    0    0    0   22   -1   -1   -1   -1   -1   -1   -1   -1   -1   12 
   0    0    0    0    0    0    0    0    0    0    0    0    0    0    0    0    0    0    0    0    0    0    0    0    0    0    0    0    0    0    0    0    0    0    0    0    0    0    0    0   -1   20    6   -1   -1    0   -1   -1   -1   -1 
   0    0    0    0    0    0    0    0    0    0    0    0    0    0    0    0    0    0    0    0    0    0    0    0    0    0    0    0    0    0    0    0    0    0    0    0    0    0    0    0    0   -1   -1   -1    7   -1   11   -1   -1    3 
   0    0    0    0    0    0    0    0    0    0    0    0    0    0    0    0    0    0    0    0    0    0    0    0    0    0    0    0    0    0    0    0    0    0    0    0    0    0    0    0    0    0   -1   -1   23   -1    8   11   -1   -1 
   0    0    0    0    0    0    0    0    0    0    0    0    0    0    0    0    0    0    0    0    0    0    0    0    0    0    0    0    0    0    0    0    0    0    0    0    0    0    0    0    0    0    0   -1   -1   -1   -1   -1   -1   -1 
   0    0    0    0    0    0    0    0    0    0    0    0    0    0    0    0    0    0    0    0    0    0    0    0    0    0    0    0    0    0    0    0    0    0    0    0    0    0    0    0    0    0    0    0   -1   -1   -1   -1   -1   -1 
   0    0    0    0    0    0    0    0    0    0    0    0    0    0    0    0    0    0    0    0    0    0    0    0    0    0    0    0    0    0    0    0    0    0    0    0    0    0    0    0    0    0    0    0    0    7   -1   -1   -1   -1 
   0    0    0    0    0    0    0    0    0    0    0    0    0    0    0    0    0    0    0    0    0    0    0    0    0    0    0    0    0    0    0    0    0    0    0    0    0    0    0    0    0    0    0    0    0    0   -1   15   -1   21 
   0    0    0    0    0    0    0    0    0    0    0    0    0    0    0    0    0    0    0    0    0    0    0    0    0    0    0    0    0    0    0    0    0    0    0    0    0    0    0    0    0    0    0    0    0    0    0   14   -1   -1 
   0    0    0    0    0    0    0    0    0    0    0    0    0    0    0    0    0    0    0    0    0    0    0    0    0    0    0    0    0    0    0    0    0    0    0    0    0    0    0    0    0    0    0    0    0    0    0    0   -1   15 
   0    0    0    0    0    0    0    0    0    0    0    0    0    0    0    0    0    0    0    0    0    0    0    0    0    0    0    0    0    0    0    0    0    0    0    0    0    0    0    0    0    0    0    0    0    0    0    0    0   -1 
   0    0    0    0    0    0    0    0    0    0    0    0    0    0    0    0    0    0    0    0    0    0    0    0    0    0    0    0    0    0    0    0    0    0    0    0    0    0    0    0    0    0    0    0    0    0    0    0    0    0 
